data;

set I := 1 2 3 4;
set J := A B C;

param c :=
1      9
2      7
3     12
4      6
;

param b :=
1      5000
2      2400
3      4000
4      1500
;

param r :=
A      12
B      18
C      10
;

param q_max :=
3  A  0.3
2  C  0.5
;

param q_min :=
2  A  0.2
3  B  0.4
;

